rc202
1370.92 3
96874 354 354 | 0 65 82 98 12 14 47 15 11 83 64 23 19 51 76 18 22 57 86 87 9 10 97 59 74 13 17 7 4 60 100 70
96 35 28 | 0 45 5 3 1 42 39 36 44 69 88 99 16 73 78 53 79 8 6 46 2 55 68 54 43 35 37 72 96 93 94 80
874 4 354 | 0 91 92 95 85 63 33 28 26 27 29 31 30 62 67 71 61 41 38 40 81 90 84 49 20 66 56 50 34 32 89 48 21 24 25 77 75 58 52
